NAME          diet2
ROWS
 G  R0001
 G  R0002
 G  R0003
 G  R0004
 L  R0005
 G  R0006
 N  R0007
COLUMNS
    C0001     R0001     60
    C0001     R0002     10
    C0001     R0003     15
    C0001     R0004     20
    C0001     R0005     938
    C0001     R0006     295
    C0001     R0007     3.19
    C0002     R0001     8
    C0002     R0002     20
    C0002     R0003     20
    C0002     R0005     2180
    C0002     R0006     770
    C0002     R0007     2.59
    C0003     R0001     8
    C0003     R0002     15
    C0003     R0003     10
    C0003     R0004     10
    C0003     R0005     945
    C0003     R0006     440
    C0003     R0007     2.29
    C0004     R0001     40
    C0004     R0002     35
    C0004     R0003     10
    C0004     R0004     40
    C0004     R0005     278
    C0004     R0006     430
    C0004     R0007     2.89
    C0005     R0001     15
    C0005     R0002     15
    C0005     R0003     15
    C0005     R0004     35
    C0005     R0005     1182
    C0005     R0006     315
    C0005     R0007     1.89
    C0006     R0001     70
    C0006     R0002     15
    C0006     R0003     15
    C0006     R0004     30
    C0006     R0005     896
    C0006     R0006     400
    C0006     R0007     1.99
    C0007     R0001     25
    C0007     R0002     25
    C0007     R0003     15
    C0007     R0004     50
    C0007     R0005     1329
    C0007     R0006     370
    C0007     R0007     1.99
    C0008     R0001     60
    C0008     R0002     15
    C0008     R0003     10
    C0008     R0004     20
    C0008     R0005     1397
    C0008     R0006     450
    C0008     R0007     2.49
RHS
    B         R0001     700
    B         R0002     700
    B         R0003     700
    B         R0004     700
    B         R0005     50000
    B         R0006     16000
RANGES
    RANGE     R0006     8000
BOUNDS
 LO BOUND     C0001     2
 UP BOUND     C0001     10
 LO BOUND     C0002     2
 UP BOUND     C0002     10
 LO BOUND     C0003     2
 UP BOUND     C0003     10
 LO BOUND     C0004     2
 UP BOUND     C0004     10
 LO BOUND     C0005     2
 UP BOUND     C0005     10
 LO BOUND     C0006     2
 UP BOUND     C0006     10
 LO BOUND     C0007     2
 UP BOUND     C0007     10
 LO BOUND     C0008     2
 UP BOUND     C0008     10
ENDATA
